
ASes= { 1, 2, 3, 4, 5 } ;


Objects= { 1, 2, 3, 4, 5, 6, 7, 8, 9, 10, 11, 12, 13, 14, 15, 16, 17, 18, 19, 20, 21, 22, 23, 24, 25, 26, 27, 28, 29, 30, 31, 32, 33, 34, 35, 36, 37, 38, 39, 40, 41, 42, 43, 44, 45, 46, 47, 48, 49, 50, 51, 52, 53, 54, 55, 56, 57, 58, 59, 60, 61, 62, 63, 64, 65, 66, 67, 68, 69, 70, 71, 72, 73, 74, 75, 76, 77, 78, 79, 80, 81, 82, 83, 84, 85, 86, 87, 88, 89, 90, 91, 92, 93, 94, 95, 96, 97, 98, 99, 100, 101, 102, 103, 104, 105, 106, 107, 108, 109, 110, 111, 112, 113, 114, 115, 116, 117, 118, 119, 120, 121, 122, 123, 124, 125, 126, 127, 128, 129, 130, 131, 132, 133, 134, 135, 136, 137, 138, 139, 140, 141, 142, 143, 144, 145, 146, 147, 148, 149, 150, 151, 152, 153, 154, 155, 156, 157, 158, 159, 160, 161, 162, 163, 164, 165, 166, 167, 168, 169, 170, 171, 172, 173, 174, 175, 176, 177, 178, 179, 180, 181, 182, 183, 184, 185, 186, 187, 188, 189, 190, 191, 192, 193, 194, 195, 196, 197, 198, 199, 200, 201, 202, 203, 204, 205, 206, 207, 208, 209, 210, 211, 212, 213, 214, 215, 216, 217, 218, 219, 220, 221, 222, 223, 224, 225, 226, 227, 228, 229, 230, 231, 232, 233, 234, 235, 236, 237, 238, 239, 240, 241, 242, 243, 244, 245, 246, 247, 248, 249, 250, 251, 252, 253, 254, 255, 256, 257, 258, 259, 260, 261, 262, 263, 264, 265, 266, 267, 268, 269, 270, 271, 272, 273, 274, 275, 276, 277, 278, 279, 280, 281, 282, 283, 284, 285, 286, 287, 288, 289, 290, 291, 292, 293, 294, 295, 296, 297, 298, 299, 300, 301, 302, 303, 304, 305, 306, 307, 308, 309, 310, 311, 312, 313, 314, 315, 316, 317, 318, 319, 320, 321, 322, 323, 324, 325, 326, 327, 328, 329, 330, 331, 332, 333, 334, 335, 336, 337, 338, 339, 340, 341, 342, 343, 344, 345, 346, 347, 348, 349, 350, 351, 352, 353, 354, 355, 356, 357, 358, 359, 360, 361, 362, 363, 364, 365, 366, 367, 368, 369, 370, 371, 372, 373, 374, 375, 376, 377, 378, 379, 380, 381, 382, 383, 384, 385, 386, 387, 388, 389, 390, 391, 392, 393, 394, 395, 396, 397, 398, 399, 400, 401, 402, 403, 404, 405, 406, 407, 408, 409, 410, 411, 412, 413, 414, 415, 416, 417, 418, 419, 420, 421, 422, 423, 424, 425, 426, 427, 428, 429, 430, 431, 432, 433, 434, 435, 436, 437, 438, 439, 440, 441, 442, 443, 444, 445, 446, 447, 448, 449, 450, 451, 452, 453, 454, 455, 456, 457, 458, 459, 460, 461, 462, 463, 464, 465, 466, 467, 468, 469, 470, 471, 472, 473, 474, 475, 476, 477, 478, 479, 480, 481, 482, 483, 484, 485, 486, 487, 488, 489, 490, 491, 492, 493, 494, 495, 496, 497, 498, 499, 500 } ;


QualityLevels= { 0, 1, 2, 3, 4, 5 } ;

Arcs = { <1,2,490000>, <2,1,490000>,<1,3,490000>, <3,1,490000>,<1,4,490000>, <4,1,490000>,<2,5,490000>, <5,2,490000> }; 


RatePerQuality= [ 0  300  700  1500  2500  3500 ] ;


CacheSpacePerQuality= [ 10000  11.25  26.25  56.25  93.75  131.25 ] ;


UtilityPerQuality= [ 0  0.2  0.4  0.6  0.8  1 ] ;


ObjectsPublishedByProducers=[ [ 0  0  1  0  0 ]  [ 1  0  0  0  0 ]  [ 0  1  0  0  0 ]  [ 0  0  0  1  0 ]  [ 0  0  0  0  1 ]  [ 0  0  0  0  1 ]  [ 0  1  0  0  0 ]  [ 0  1  0  0  0 ]  [ 0  0  1  0  0 ]  [ 0  0  1  0  0 ]  [ 1  0  0  0  0 ]  [ 0  0  0  0  1 ]  [ 0  1  0  0  0 ]  [ 0  0  1  0  0 ]  [ 0  0  0  0  1 ]  [ 0  1  0  0  0 ]  [ 0  0  0  1  0 ]  [ 1  0  0  0  0 ]  [ 1  0  0  0  0 ]  [ 0  0  1  0  0 ]  [ 0  0  1  0  0 ]  [ 0  0  0  0  1 ]  [ 1  0  0  0  0 ]  [ 0  0  0  1  0 ]  [ 0  0  0  1  0 ]  [ 0  0  0  0  1 ]  [ 0  0  1  0  0 ]  [ 0  0  0  1  0 ]  [ 0  0  0  0  1 ]  [ 0  0  0  0  1 ]  [ 0  0  0  1  0 ]  [ 0  0  0  1  0 ]  [ 0  0  0  1  0 ]  [ 0  0  0  0  1 ]  [ 0  0  0  1  0 ]  [ 0  0  1  0  0 ]  [ 1  0  0  0  0 ]  [ 0  0  0  0  1 ]  [ 0  1  0  0  0 ]  [ 0  0  1  0  0 ]  [ 1  0  0  0  0 ]  [ 1  0  0  0  0 ]  [ 0  0  1  0  0 ]  [ 0  0  0  1  0 ]  [ 0  1  0  0  0 ]  [ 0  1  0  0  0 ]  [ 1  0  0  0  0 ]  [ 0  0  0  0  1 ]  [ 1  0  0  0  0 ]  [ 0  1  0  0  0 ]  [ 0  0  0  1  0 ]  [ 0  0  0  0  1 ]  [ 1  0  0  0  0 ]  [ 1  0  0  0  0 ]  [ 0  0  0  0  1 ]  [ 0  0  0  0  1 ]  [ 0  0  1  0  0 ]  [ 0  0  0  1  0 ]  [ 0  1  0  0  0 ]  [ 0  0  0  0  1 ]  [ 0  0  1  0  0 ]  [ 0  0  0  0  1 ]  [ 0  1  0  0  0 ]  [ 0  1  0  0  0 ]  [ 0  0  0  1  0 ]  [ 0  0  0  0  1 ]  [ 0  0  0  0  1 ]  [ 0  1  0  0  0 ]  [ 0  0  0  0  1 ]  [ 0  0  0  1  0 ]  [ 0  0  0  0  1 ]  [ 0  0  1  0  0 ]  [ 0  0  1  0  0 ]  [ 0  1  0  0  0 ]  [ 1  0  0  0  0 ]  [ 0  0  0  0  1 ]  [ 0  0  0  1  0 ]  [ 0  0  1  0  0 ]  [ 0  0  0  0  1 ]  [ 1  0  0  0  0 ]  [ 0  1  0  0  0 ]  [ 0  0  0  0  1 ]  [ 1  0  0  0  0 ]  [ 0  0  0  1  0 ]  [ 0  0  0  0  1 ]  [ 1  0  0  0  0 ]  [ 0  0  0  0  1 ]  [ 0  0  0  0  1 ]  [ 0  0  0  1  0 ]  [ 0  0  0  0  1 ]  [ 1  0  0  0  0 ]  [ 0  0  1  0  0 ]  [ 0  1  0  0  0 ]  [ 1  0  0  0  0 ]  [ 1  0  0  0  0 ]  [ 0  1  0  0  0 ]  [ 1  0  0  0  0 ]  [ 0  0  0  0  1 ]  [ 0  0  0  0  1 ]  [ 0  0  0  0  1 ]  [ 0  0  1  0  0 ]  [ 1  0  0  0  0 ]  [ 0  0  0  0  1 ]  [ 0  0  1  0  0 ]  [ 0  0  0  0  1 ]  [ 0  0  0  0  1 ]  [ 0  0  0  1  0 ]  [ 0  0  0  1  0 ]  [ 0  0  0  0  1 ]  [ 0  1  0  0  0 ]  [ 0  1  0  0  0 ]  [ 0  0  0  0  1 ]  [ 0  0  1  0  0 ]  [ 0  0  0  1  0 ]  [ 0  0  1  0  0 ]  [ 0  0  0  0  1 ]  [ 1  0  0  0  0 ]  [ 0  1  0  0  0 ]  [ 0  1  0  0  0 ]  [ 1  0  0  0  0 ]  [ 0  0  0  1  0 ]  [ 1  0  0  0  0 ]  [ 0  1  0  0  0 ]  [ 0  0  1  0  0 ]  [ 0  0  1  0  0 ]  [ 0  0  1  0  0 ]  [ 0  1  0  0  0 ]  [ 0  0  0  1  0 ]  [ 0  0  1  0  0 ]  [ 0  1  0  0  0 ]  [ 0  0  0  1  0 ]  [ 0  0  1  0  0 ]  [ 0  0  1  0  0 ]  [ 0  0  0  0  1 ]  [ 0  0  1  0  0 ]  [ 0  0  0  1  0 ]  [ 0  1  0  0  0 ]  [ 0  0  0  0  1 ]  [ 0  0  0  1  0 ]  [ 0  0  0  0  1 ]  [ 0  0  1  0  0 ]  [ 0  0  0  1  0 ]  [ 0  0  0  0  1 ]  [ 0  0  1  0  0 ]  [ 0  0  1  0  0 ]  [ 1  0  0  0  0 ]  [ 0  0  0  0  1 ]  [ 0  0  0  1  0 ]  [ 0  1  0  0  0 ]  [ 1  0  0  0  0 ]  [ 0  0  1  0  0 ]  [ 0  0  1  0  0 ]  [ 0  0  1  0  0 ]  [ 0  1  0  0  0 ]  [ 0  0  1  0  0 ]  [ 0  1  0  0  0 ]  [ 0  1  0  0  0 ]  [ 0  0  0  0  1 ]  [ 0  0  0  1  0 ]  [ 1  0  0  0  0 ]  [ 0  1  0  0  0 ]  [ 0  0  0  0  1 ]  [ 0  0  0  1  0 ]  [ 0  1  0  0  0 ]  [ 0  0  0  1  0 ]  [ 0  0  0  0  1 ]  [ 0  0  0  1  0 ]  [ 0  1  0  0  0 ]  [ 0  0  1  0  0 ]  [ 0  0  0  1  0 ]  [ 1  0  0  0  0 ]  [ 1  0  0  0  0 ]  [ 0  0  0  1  0 ]  [ 1  0  0  0  0 ]  [ 0  0  0  1  0 ]  [ 1  0  0  0  0 ]  [ 0  1  0  0  0 ]  [ 0  0  0  0  1 ]  [ 0  0  0  1  0 ]  [ 0  0  1  0  0 ]  [ 1  0  0  0  0 ]  [ 0  0  1  0  0 ]  [ 1  0  0  0  0 ]  [ 1  0  0  0  0 ]  [ 0  0  0  0  1 ]  [ 0  0  1  0  0 ]  [ 1  0  0  0  0 ]  [ 1  0  0  0  0 ]  [ 0  1  0  0  0 ]  [ 0  0  0  0  1 ]  [ 0  0  0  1  0 ]  [ 0  0  0  1  0 ]  [ 0  0  0  1  0 ]  [ 0  1  0  0  0 ]  [ 0  0  0  0  1 ]  [ 0  0  1  0  0 ]  [ 0  0  1  0  0 ]  [ 0  1  0  0  0 ]  [ 0  0  0  1  0 ]  [ 0  0  0  0  1 ]  [ 0  0  0  1  0 ]  [ 1  0  0  0  0 ]  [ 1  0  0  0  0 ]  [ 0  0  1  0  0 ]  [ 0  0  0  1  0 ]  [ 0  0  0  1  0 ]  [ 1  0  0  0  0 ]  [ 0  1  0  0  0 ]  [ 0  0  0  1  0 ]  [ 0  0  0  1  0 ]  [ 0  1  0  0  0 ]  [ 1  0  0  0  0 ]  [ 1  0  0  0  0 ]  [ 0  0  0  1  0 ]  [ 1  0  0  0  0 ]  [ 0  1  0  0  0 ]  [ 0  0  0  0  1 ]  [ 1  0  0  0  0 ]  [ 0  0  0  1  0 ]  [ 0  1  0  0  0 ]  [ 0  0  1  0  0 ]  [ 0  0  1  0  0 ]  [ 1  0  0  0  0 ]  [ 0  0  0  1  0 ]  [ 0  1  0  0  0 ]  [ 0  1  0  0  0 ]  [ 1  0  0  0  0 ]  [ 0  0  0  1  0 ]  [ 0  0  0  1  0 ]  [ 0  0  0  1  0 ]  [ 1  0  0  0  0 ]  [ 0  1  0  0  0 ]  [ 1  0  0  0  0 ]  [ 1  0  0  0  0 ]  [ 0  0  1  0  0 ]  [ 0  0  0  0  1 ]  [ 0  0  1  0  0 ]  [ 0  0  1  0  0 ]  [ 0  0  1  0  0 ]  [ 1  0  0  0  0 ]  [ 0  1  0  0  0 ]  [ 1  0  0  0  0 ]  [ 0  0  0  1  0 ]  [ 0  1  0  0  0 ]  [ 0  1  0  0  0 ]  [ 0  0  0  1  0 ]  [ 0  0  0  0  1 ]  [ 0  0  0  1  0 ]  [ 0  0  1  0  0 ]  [ 0  0  0  1  0 ]  [ 1  0  0  0  0 ]  [ 0  0  0  0  1 ]  [ 1  0  0  0  0 ]  [ 0  0  0  0  1 ]  [ 0  0  0  1  0 ]  [ 0  1  0  0  0 ]  [ 1  0  0  0  0 ]  [ 0  0  1  0  0 ]  [ 0  1  0  0  0 ]  [ 0  0  1  0  0 ]  [ 0  0  1  0  0 ]  [ 1  0  0  0  0 ]  [ 0  0  1  0  0 ]  [ 0  0  0  1  0 ]  [ 1  0  0  0  0 ]  [ 0  0  0  0  1 ]  [ 0  0  1  0  0 ]  [ 0  0  1  0  0 ]  [ 0  0  0  1  0 ]  [ 0  1  0  0  0 ]  [ 0  0  1  0  0 ]  [ 1  0  0  0  0 ]  [ 0  0  0  1  0 ]  [ 1  0  0  0  0 ]  [ 1  0  0  0  0 ]  [ 0  0  0  1  0 ]  [ 0  0  0  1  0 ]  [ 0  0  0  0  1 ]  [ 0  0  1  0  0 ]  [ 0  1  0  0  0 ]  [ 0  0  1  0  0 ]  [ 0  0  1  0  0 ]  [ 1  0  0  0  0 ]  [ 0  0  0  1  0 ]  [ 0  0  0  0  1 ]  [ 0  0  0  0  1 ]  [ 0  0  0  1  0 ]  [ 0  0  1  0  0 ]  [ 1  0  0  0  0 ]  [ 1  0  0  0  0 ]  [ 1  0  0  0  0 ]  [ 0  0  1  0  0 ]  [ 0  0  0  1  0 ]  [ 0  1  0  0  0 ]  [ 1  0  0  0  0 ]  [ 0  0  0  0  1 ]  [ 0  1  0  0  0 ]  [ 0  1  0  0  0 ]  [ 0  0  0  1  0 ]  [ 0  0  0  0  1 ]  [ 0  0  0  1  0 ]  [ 0  0  0  1  0 ]  [ 0  0  1  0  0 ]  [ 0  0  0  1  0 ]  [ 1  0  0  0  0 ]  [ 0  0  0  0  1 ]  [ 0  1  0  0  0 ]  [ 0  1  0  0  0 ]  [ 1  0  0  0  0 ]  [ 0  0  0  1  0 ]  [ 0  0  0  1  0 ]  [ 0  0  0  1  0 ]  [ 0  0  0  1  0 ]  [ 1  0  0  0  0 ]  [ 1  0  0  0  0 ]  [ 0  0  0  1  0 ]  [ 0  0  0  1  0 ]  [ 0  0  0  0  1 ]  [ 0  0  0  0  1 ]  [ 0  0  0  0  1 ]  [ 0  0  0  1  0 ]  [ 0  0  1  0  0 ]  [ 0  0  0  1  0 ]  [ 0  0  1  0  0 ]  [ 0  0  0  0  1 ]  [ 0  0  1  0  0 ]  [ 0  0  1  0  0 ]  [ 0  1  0  0  0 ]  [ 0  0  0  1  0 ]  [ 0  1  0  0  0 ]  [ 0  0  0  0  1 ]  [ 1  0  0  0  0 ]  [ 0  0  1  0  0 ]  [ 0  0  0  0  1 ]  [ 0  1  0  0  0 ]  [ 0  0  1  0  0 ]  [ 1  0  0  0  0 ]  [ 0  0  1  0  0 ]  [ 0  1  0  0  0 ]  [ 1  0  0  0  0 ]  [ 1  0  0  0  0 ]  [ 0  0  0  1  0 ]  [ 0  0  1  0  0 ]  [ 0  0  0  0  1 ]  [ 1  0  0  0  0 ]  [ 0  0  0  1  0 ]  [ 1  0  0  0  0 ]  [ 0  0  1  0  0 ]  [ 1  0  0  0  0 ]  [ 0  0  1  0  0 ]  [ 0  0  0  1  0 ]  [ 1  0  0  0  0 ]  [ 1  0  0  0  0 ]  [ 1  0  0  0  0 ]  [ 1  0  0  0  0 ]  [ 0  1  0  0  0 ]  [ 0  1  0  0  0 ]  [ 0  0  1  0  0 ]  [ 0  0  0  0  1 ]  [ 0  0  1  0  0 ]  [ 0  1  0  0  0 ]  [ 0  1  0  0  0 ]  [ 0  0  0  1  0 ]  [ 0  0  1  0  0 ]  [ 1  0  0  0  0 ]  [ 1  0  0  0  0 ]  [ 0  0  0  0  1 ]  [ 0  0  0  0  1 ]  [ 1  0  0  0  0 ]  [ 0  0  0  0  1 ]  [ 0  0  0  1  0 ]  [ 0  0  0  1  0 ]  [ 0  0  0  1  0 ]  [ 0  0  1  0  0 ]  [ 0  1  0  0  0 ]  [ 0  0  0  0  1 ]  [ 0  0  0  0  1 ]  [ 0  0  1  0  0 ]  [ 0  0  0  1  0 ]  [ 0  0  1  0  0 ]  [ 0  0  1  0  0 ]  [ 0  0  0  1  0 ]  [ 1  0  0  0  0 ]  [ 0  0  0  1  0 ]  [ 0  0  0  0  1 ]  [ 0  1  0  0  0 ]  [ 0  0  0  1  0 ]  [ 0  0  1  0  0 ]  [ 0  0  0  0  1 ]  [ 0  0  0  0  1 ]  [ 0  1  0  0  0 ]  [ 0  0  0  0  1 ]  [ 0  1  0  0  0 ]  [ 0  1  0  0  0 ]  [ 0  0  0  1  0 ]  [ 0  0  0  0  1 ]  [ 0  0  0  0  1 ]  [ 0  0  0  1  0 ]  [ 0  0  0  0  1 ]  [ 0  0  0  0  1 ]  [ 1  0  0  0  0 ]  [ 1  0  0  0  0 ]  [ 0  0  0  1  0 ]  [ 0  1  0  0  0 ]  [ 0  0  1  0  0 ]  [ 0  0  1  0  0 ]  [ 0  0  0  0  1 ]  [ 1  0  0  0  0 ]  [ 0  0  1  0  0 ]  [ 0  1  0  0  0 ]  [ 1  0  0  0  0 ]  [ 0  0  0  1  0 ]  [ 0  1  0  0  0 ]  [ 1  0  0  0  0 ]  [ 0  0  0  1  0 ]  [ 0  1  0  0  0 ]  [ 0  1  0  0  0 ]  [ 0  0  0  0  1 ]  [ 1  0  0  0  0 ]  [ 1  0  0  0  0 ]  [ 1  0  0  0  0 ]  [ 0  0  0  0  1 ]  [ 0  0  1  0  0 ]  [ 0  0  0  1  0 ]  [ 0  0  0  1  0 ]  [ 0  0  0  0  1 ]  [ 0  1  0  0  0 ]  [ 0  0  1  0  0 ]  [ 0  1  0  0  0 ]  [ 0  1  0  0  0 ]  [ 0  0  0  1  0 ]  [ 0  0  0  0  1 ]  [ 0  0  1  0  0 ]  [ 0  1  0  0  0 ]  [ 0  0  1  0  0 ]  [ 1  0  0  0  0 ]  [ 1  0  0  0  0 ]  [ 0  1  0  0  0 ]  [ 0  0  0  1  0 ]  [ 1  0  0  0  0 ]  [ 1  0  0  0  0 ]  [ 0  0  1  0  0 ]  [ 0  1  0  0  0 ]  [ 1  0  0  0  0 ]  [ 0  1  0  0  0 ]  [ 0  1  0  0  0 ]  [ 0  0  0  0  1 ]  [ 1  0  0  0  0 ]  [ 1  0  0  0  0 ]  [ 0  0  0  1  0 ]  [ 1  0  0  0  0 ]  [ 0  0  0  0  1 ]  [ 0  0  1  0  0 ]  [ 0  0  0  1  0 ]  [ 0  0  1  0  0 ]  [ 1  0  0  0  0 ]  [ 1  0  0  0  0 ]  [ 0  0  1  0  0 ]  [ 0  1  0  0  0 ]  [ 0  0  0  0  1 ]  [ 0  0  1  0  0 ]  [ 0  0  0  1  0 ]  [ 0  0  0  1  0 ]  [ 0  1  0  0  0 ]  [ 0  0  1  0  0 ]  [ 0  0  1  0  0 ]  [ 0  0  0  0  1 ]  [ 0  0  1  0  0 ]  [ 0  1  0  0  0 ]  [ 0  1  0  0  0 ]  [ 1  0  0  0  0 ]  [ 0  0  0  1  0 ]  [ 0  0  0  1  0 ]  [ 0  0  0  0  1 ]  [ 0  0  0  1  0 ]  [ 0  0  0  0  1 ]  [ 0  0  0  1  0 ]  [ 0  1  0  0  0 ]  [ 0  1  0  0  0 ]  [ 1  0  0  0  0 ]  [ 1  0  0  0  0 ]  [ 0  0  0  0  1 ]  [ 0  0  0  0  1 ]  [ 1  0  0  0  0 ]  [ 0  1  0  0  0 ]  [ 0  0  0  0  1 ]  [ 0  0  0  1  0 ]  [ 0  0  0  1  0 ]  [ 0  0  1  0  0 ]  [ 1  0  0  0  0 ]  [ 0  0  1  0  0 ]  [ 0  1  0  0  0 ]  [ 0  0  0  0  1 ]  [ 1  0  0  0  0 ]  [ 0  1  0  0  0 ]  [ 1  0  0  0  0 ]  [ 0  0  1  0  0 ]  [ 0  0  0  0  1 ]  [ 0  0  0  0  1 ]  [ 0  0  0  1  0 ] ];

ObjRequests = {  <1,3,22>, <2,3,3>, <3,3,5>, <4,3,2>, <5,3,5>, <7,3,4>, <8,3,8>, <9,3,8>, <10,3,2>, <11,3,5>, <13,3,2>, <15,3,3>, <16,3,5>, <17,3,4>, <18,3,3>, <19,3,1>, <20,3,3>, <21,3,2>, <22,3,3>, <23,3,3>, <27,3,2>, <28,3,2>, <29,3,1>, <33,3,2>, <34,3,1>, <36,3,1>, <40,3,1>, <41,3,1>, <44,3,3>, <45,3,1>, <46,3,1>, <47,3,1>, <51,3,1>, <53,3,1>, <66,3,1>, <67,3,4>, <69,3,1>, <72,3,1>, <74,3,2>, <88,3,1>, <90,3,1>, <91,3,1>, <97,3,1>, <99,3,1>, <101,3,1>, <111,3,1>, <114,3,1>, <120,3,1>, <127,3,1>, <136,3,1>, <142,3,2>, <157,3,1>, <158,3,1>, <170,3,1>, <171,3,1>, <176,3,1>, <188,3,1>, <190,3,1>, <193,3,1>, <233,3,1>, <243,3,1>, <272,3,1>, <273,3,1>, <277,3,2>, <288,3,1>, <391,3,1>, <418,3,1>, <447,3,1>, <1,4,44>, <2,4,3>, <3,4,7>, <5,4,13>, <6,4,7>, <7,4,5>, <8,4,2>, <9,4,1>, <10,4,1>, <11,4,1>, <12,4,5>, <13,4,1>, <15,4,1>, <17,4,2>, <19,4,2>, <20,4,2>, <21,4,1>, <22,4,3>, <23,4,1>, <25,4,1>, <27,4,2>, <29,4,1>, <32,4,2>, <34,4,1>, <35,4,1>, <37,4,1>, <40,4,1>, <42,4,1>, <43,4,1>, <44,4,1>, <52,4,1>, <60,4,2>, <73,4,1>, <75,4,1>, <81,4,1>, <84,4,1>, <88,4,3>, <90,4,1>, <91,4,1>, <97,4,1>, <109,4,1>, <114,4,1>, <115,4,1>, <135,4,1>, <137,4,1>, <142,4,1>, <157,4,1>, <158,4,1>, <202,4,1>, <209,4,1>, <226,4,1>, <266,4,1>, <278,4,1>, <331,4,1>, <367,4,1>, <402,4,1>, <418,4,1>, <445,4,1>, <454,4,1>, <458,4,1>, <476,4,1>, <1,5,15>, <2,5,17>, <4,5,12>, <5,5,6>, <6,5,7>, <7,5,4>, <8,5,2>, <10,5,5>, <12,5,2>, <13,5,1>, <14,5,1>, <15,5,1>, <17,5,2>, <18,5,2>, <19,5,1>, <20,5,1>, <21,5,1>, <23,5,2>, <25,5,1>, <27,5,2>, <28,5,1>, <32,5,2>, <34,5,4>, <36,5,1>, <39,5,3>, <40,5,1>, <41,5,1>, <46,5,2>, <47,5,1>, <51,5,1>, <58,5,1>, <60,5,1>, <62,5,1>, <67,5,1>, <72,5,1>, <75,5,1>, <78,5,1>, <81,5,1>, <97,5,1>, <104,5,1>, <126,5,2>, <136,5,1>, <144,5,1>, <148,5,1>, <157,5,1>, <166,5,2>, <173,5,1>, <179,5,1>, <182,5,1>, <188,5,1>, <248,5,1>, <286,5,1>, <299,5,1>, <335,5,1>, <380,5,1>, <408,5,2>, <1,2,26>, <2,2,17>, <3,2,12>, <4,2,3>, <6,2,3>, <8,2,4>, <9,2,1>, <10,2,3>, <11,2,3>, <12,2,1>, <13,2,4>, <14,2,1>, <17,2,1>, <18,2,1>, <19,2,2>, <20,2,2>, <27,2,2>, <29,2,1>, <30,2,4>, <31,2,1>, <32,2,1>, <33,2,2>, <36,2,1>, <40,2,2>, <42,2,1>, <43,2,1>, <46,2,1>, <47,2,1>, <51,2,1>, <55,2,1>, <58,2,1>, <61,2,1>, <66,2,1>, <74,2,1>, <91,2,1>, <99,2,1>, <114,2,1>, <115,2,3>, <119,2,1>, <124,2,1>, <143,2,1>, <163,2,1>, <164,2,1>, <166,2,1>, <169,2,1>, <170,2,1>, <171,2,1>, <177,2,1>, <195,2,1>, <202,2,1>, <218,2,1>, <222,2,1>, <225,2,2>, <229,2,1>, <243,2,1>, <248,2,1>, <250,2,1>, <253,2,2>, <327,2,1>, <331,2,1>, <387,2,1>, <408,2,1>, <419,2,1>, <482,2,1>, <1,1,11>, <2,1,14>, <3,1,20>, <4,1,10>, <5,1,4>, <6,1,3>, <7,1,2>, <8,1,2>, <9,1,1>, <11,1,3>, <12,1,1>, <13,1,1>, <14,1,1>, <16,1,4>, <18,1,4>, <22,1,1>, <23,1,2>, <24,1,1>, <25,1,4>, <28,1,1>, <32,1,1>, <35,1,1>, <36,1,1>, <46,1,1>, <47,1,3>, <50,1,1>, <52,1,1>, <54,1,1>, <55,1,1>, <58,1,1>, <60,1,2>, <62,1,1>, <67,1,1>, <69,1,1>, <71,1,1>, <72,1,1>, <73,1,1>, <74,1,1>, <75,1,1>, <84,1,1>, <88,1,1>, <89,1,1>, <92,1,1>, <102,1,1>, <118,1,1>, <122,1,1>, <126,1,1>, <127,1,1>, <136,1,1>, <144,1,1>, <148,1,1>, <170,1,1>, <171,1,1>, <220,1,1>, <231,1,1>, <238,1,1>, <266,1,1>, <270,1,1>, <273,1,1>, <278,1,1>, <288,1,1>, <306,1,1>, <380,1,1>, <437,1,1>, <458,1,1>, <476,1,1> };

MaxCacheStorageAtSingleAS= [ 656.25  656.25  656.25  656.25  656.25 ] ;

MaxCacheStorage = 3281.25 ;
SolutionGap = 0.01 ;
